c Sudoku solution
p cnf 729 0
118 0
142 0
177 0
285 0
369 0
447 0
454 0
472 0
523 0
539 0
671 0
758 0
783 0
796 0
814 0
841 0
989 0
991 0
279 0
129 0
719 0
859 0
649 0
373 0
576 0
488 0
499 0
693 0
595 0
463 0
584 0
687 0
548 0
517 0
268 0
833 0
213 0
153 0
943 0
897 0
882 0
398 0
292 0
194 0
745 0
866 0
774 0
964 0
656 0
665 0
612 0
355 0
161 0
257 0
186 0
381 0
135 0
316 0
246 0
344 0
411 0
915 0
828 0
875 0
978 0
425 0
436 0
926 0
624 0
638 0
221 0
234 0
731 0
551 0
562 0
952 0
767 0
722 0
937 0
327 0
332 0
